
Gurobi 7.5.1 (linux64, Python) logging started Wed Nov 29 11:41:23 2017

Optimize a model with 3 rows, 2 columns and 6 nonzeros
Variable types: 0 continuous, 2 integer (0 binary)
Coefficient statistics:
  Matrix range     [1e+00, 3e+00]
  Objective range  [5e+00, 8e+00]
  Bounds range     [0e+00, 0e+00]
  RHS range        [3e+00, 7e+00]
Found heuristic solution: objective 13
Presolve removed 3 rows and 2 columns
Presolve time: 0.02s
Presolve: All rows and columns removed

Explored 0 nodes (0 simplex iterations) in 0.06 seconds
Thread count was 1 (of 8 available processors)

Solution count 1: 13 

Optimal solution found (tolerance 1.00e-04)
Best objective 1.300000000000e+01, best bound 1.300000000000e+01, gap 0.0000%

Gurobi 7.5.1 (linux64, Python) logging started Fri Dec  1 16:30:44 2017


Gurobi 7.5.1 (linux64, Python) logging started Fri Dec  1 16:30:57 2017


Gurobi 7.5.1 (linux64, Python) logging started Fri Dec  1 16:31:23 2017


Gurobi 7.5.1 (linux64, Python) logging started Fri Dec  1 16:31:48 2017


Gurobi 7.5.1 (linux64, Python) logging started Fri Dec  1 16:33:52 2017


Gurobi 7.5.1 (linux64, Python) logging started Fri Dec  1 16:34:09 2017


Gurobi 7.5.1 (linux64, Python) logging started Fri Dec  1 16:34:21 2017


Gurobi 7.5.1 (linux64, Python) logging started Fri Dec  1 16:34:35 2017


Gurobi 7.5.1 (linux64, Python) logging started Fri Dec  1 16:38:56 2017


Gurobi 7.5.1 (linux64, Python) logging started Fri Dec  1 16:39:05 2017


Gurobi 7.5.1 (linux64, Python) logging started Fri Dec  1 16:39:18 2017


Gurobi 7.5.1 (linux64, Python) logging started Fri Dec  1 16:46:34 2017


Gurobi 7.5.1 (linux64, Python) logging started Fri Dec  1 16:46:42 2017


Gurobi 7.5.1 (linux64, Python) logging started Fri Dec  1 16:47:10 2017


Gurobi 7.5.1 (linux64, Python) logging started Fri Dec  1 16:48:56 2017


Gurobi 7.5.1 (linux64, Python) logging started Fri Dec  1 16:49:10 2017


Gurobi 7.5.1 (linux64, Python) logging started Fri Dec  1 16:49:22 2017


Gurobi 7.5.1 (linux64, Python) logging started Fri Dec  1 16:49:30 2017


Gurobi 7.5.1 (linux64, Python) logging started Fri Dec  1 16:49:39 2017


Gurobi 7.5.1 (linux64, Python) logging started Fri Dec  1 16:50:03 2017


Gurobi 7.5.1 (linux64, Python) logging started Fri Dec  1 16:50:13 2017


Gurobi 7.5.1 (linux64, Python) logging started Fri Dec  1 17:08:34 2017


Gurobi 7.5.1 (linux64, Python) logging started Fri Dec  1 17:08:57 2017


Gurobi 7.5.1 (linux64, Python) logging started Fri Dec  1 17:09:09 2017


Gurobi 7.5.1 (linux64, Python) logging started Fri Dec  1 17:09:35 2017


Gurobi 7.5.1 (linux64, Python) logging started Fri Dec  1 17:09:52 2017


Gurobi 7.5.1 (linux64, Python) logging started Fri Dec  1 17:10:33 2017


Gurobi 7.5.1 (linux64, Python) logging started Fri Dec  1 17:10:40 2017


Gurobi 7.5.1 (linux64, Python) logging started Fri Dec  1 17:24:36 2017


Gurobi 7.5.1 (linux64, Python) logging started Fri Dec  1 17:24:54 2017


Gurobi 7.5.1 (linux64, Python) logging started Fri Dec  1 17:33:32 2017


Gurobi 7.5.1 (linux64, Python) logging started Fri Dec  1 17:33:57 2017


Gurobi 7.5.1 (linux64, Python) logging started Fri Dec  1 17:34:23 2017


Gurobi 7.5.1 (linux64, Python) logging started Fri Dec  1 17:36:07 2017


Gurobi 7.5.1 (linux64, Python) logging started Fri Dec  1 17:38:16 2017


Gurobi 7.5.1 (linux64, Python) logging started Fri Dec  1 17:39:44 2017


Gurobi 7.5.1 (linux64, Python) logging started Fri Dec  1 17:40:09 2017


Gurobi 7.5.1 (linux64, Python) logging started Fri Dec  1 17:40:56 2017


Gurobi 7.5.1 (linux64, Python) logging started Fri Dec  1 17:41:55 2017


Gurobi 7.5.1 (linux64, Python) logging started Fri Dec  1 17:43:28 2017


Gurobi 7.5.1 (linux64, Python) logging started Fri Dec  1 17:43:47 2017


Gurobi 7.5.1 (linux64, Python) logging started Fri Dec  1 17:44:13 2017


Gurobi 7.5.1 (linux64, Python) logging started Fri Dec  1 17:44:30 2017


Gurobi 7.5.1 (linux64, Python) logging started Fri Dec  1 17:44:57 2017


Gurobi 7.5.1 (linux64, Python) logging started Fri Dec  1 17:54:14 2017


Gurobi 7.5.1 (linux64, Python) logging started Fri Dec  1 17:55:34 2017


Gurobi 7.5.1 (linux64, Python) logging started Fri Dec  1 17:56:41 2017


Gurobi 7.5.1 (linux64, Python) logging started Fri Dec  1 17:56:51 2017


Gurobi 7.5.1 (linux64, Python) logging started Fri Dec  1 17:57:21 2017

